





































































































56 18 5 62 59 16 1 
61 76 11 3 40 39 
69 2 45 70 27 71 60 
15 24 72 32 64 
13 67 58 63 14 75 
33 7 23 8 12 73 
37 54 48 57 10 55 50 
65 51 38 0 42 28 
30 6 25 52 66 35 22 
17 46 
9 19 34 74 68 26 
31 29 21 4 49 44 
43 41 20 47 36 53 
